50
    49    85    29    71     6    44     9    31    31    17    84    28    98    55    83    33    21    71    29    30    54    47    34    20    94    29     2    20    75    28    27    62    76    23    93    93    12    56    75    77    42    35    39    94    65    36    42    37    20    97
    10     1     1     2     9     7     7     2     9     1     7     4    10     1     1     5     5     4     2     1     9     7     2     8     7     8     1     2     9     3     5     7     6     9     7    10     2     1     8     2     1     6     6     2     2     8     6     1     4     4
   175  1006     0   224   986  1074   125   659   325   580   618    24   954   117  1080     0     0   158     0     0   819  1199   226   175   218   283     0   163   605     0   483   415   372  1096   595     0   923   346     0  1191   229   887    94   322    83   403   555    85  1099   428
